0000000000000000
0000000001000000
0000000001000000
0000000001000000
0000011111000000
0000010011000000
0000110000000000
0000100000000000
0000110000000000
0000010000000000
0000010000000000
0000010000000000
0000001000110000
0000001111110000
0000000110000000
0000000000000000
